SCIP Status        : solving was interrupted [time limit reached]
Total Time         :    3600.01
  solving          :    3600.01
  presolving       :       0.39 (included in solving)
  reading          :       0.00
  copying          :       2.24 (68 #copies) (minimal 0.00, maximal 0.15, average 0.03)
Original Problem   :
  Problem name     : bbbenchmark/g05_100.3.cut
  Variables        : 101 (100 binary, 0 integer, 0 implicit integer, 1 continuous)
  Constraints      : 1 initial, 1 maximal
  Objective        : minimize, 1 non-zeros (abs.min = 1, abs.max = 1)
Presolved Problem  :
  Problem name     : t_bbbenchmark/g05_100.3.cut
  Variables        : 1898 (100 binary, 0 integer, 1784 implicit integer, 14 continuous)
  Constraints      : 1824 initial, 11835 maximal
  Objective        : minimize, 1 non-zeros (abs.min = 1, abs.max = 1)
  Nonzeros         : 8697 constraint, 202 clique table
Presolvers         :   ExecTime  SetupTime  Calls  FixedVars   AggrVars   ChgTypes  ChgBounds   AddHoles    DelCons    AddCons   ChgSides   ChgCoefs
  boundshift       :       0.00       0.00      0          0          0          0          0          0          0          0          0          0
  convertinttobin  :       0.00       0.00      0          0          0          0          0          0          0          0          0          0
  domcol           :       0.00       0.00      1          0          0          0          0          0          0          0          0          0
  dualagg          :       0.00       0.00      0          0          0          0          0          0          0          0          0          0
  dualcomp         :       0.00       0.00      1          0          0          0          0          0          0          0          0          0
  dualinfer        :       0.00       0.00      0          0          0          0          0          0          0          0          0          0
  dualsparsify     :       0.00       0.00      1          0          0          0          0          0          0          0          0          0
  gateextraction   :       0.00       0.00      0          0          0          0          0          0          0          0          0          0
  implics          :       0.00       0.00      2          0          0          0          0          0          0          0          0          0
  inttobinary      :       0.00       0.00      0          0          0          0          0          0          0          0          0          0
  qpkktref         :       0.00       0.00      0          0          0          0          0          0          0          0          0          0
  redvub           :       0.00       0.00      0          0          0          0          0          0          0          0          0          0
  sparsify         :       0.00       0.00      1          0          0          0          0          0          0          0          0          0
  stuffing         :       0.00       0.00      0          0          0          0          0          0          0          0          0          0
  trivial          :       0.00       0.00      4          0          0          0          0          0          0          0          0          0
  tworowbnd        :       0.00       0.00      0          0          0          0          0          0          0          0          0          0
  dualfix          :       0.00       0.00      4          0          0          0          0          0          0          0          0          0
  genvbounds       :       0.00       0.00      0          0          0          0          0          0          0          0          0          0
  probing          :       0.31       0.00      1          0          0          0          0          0          0          0          0          0
  pseudoobj        :       0.00       0.00      1          0          0          0          1          0          0          0          0          0
  symmetry         :       0.00       0.00      0          0          0          0          0          0          0          0          0          0
  vbounds          :       0.00       0.00      1          0          0          0          0          0          0          0          0          0
  varbound         :       0.00       0.00      2          0          0          0          0          0          0          0          0          0
  and              :       0.00       0.00      2          0          0          0          0          0          0          0          0          0
  linear           :       0.00       0.00      2          0          0          0          0          0          0          0          0          0
  logicor          :       0.00       0.00      0          0          0          0          0          0          0          0          0          0
  bounddisjunction :       0.00       0.00      0          0          0          0          0          0          0          0          0          0
  nonlinear        :       0.06       0.01      5          0          0          0          1          0          0       1823          0          0
  benders          :       0.00       0.00      0          0          0          0          0          0          0          0          0          0
  components       :       0.01       0.00      1          0          0          0          0          0          0          0          0          0
  root node        :          -          -      -          0          -          -         15          -          -          -          -          -
Constraints        :     Number  MaxNumber  #Separate #Propagate    #EnfoLP    #EnfoRelax  #EnfoPS    #Check   #ResProp    Cutoffs    DomReds       Cuts    Applied      Conss   Children
  benderslp        :          0          0          0          0     145079          0          0      14785          0          0          0          0          0          0          0
  integral         :          0          0          0          0     145079          0          0      14785          0          0       4570          0          0       1296     288282
  varbound         :         13         13        157     898054          0          0          0        529          0          0      62663          0          0          0          0
  and              :       1784       1784     170199     988793          3          0          0        529     706975         33    2198941        673        645          0          0
  linear           :         27+        46        157     988814          3          0          0        527        488         16     606269          0          0          0          0
  logicor          :          0+      9941          0     173136          0          0          0          0        727        677        107          0          0          0          0
  bounddisjunction :          0+       268          0      50365          0          0          0          0          2         10          2          0          0          0          0
  benders          :          0          0          0          0          3          0          0         36          0          0          0          0          0          0          0
  countsols        :          0          0          0          0          3          0          0         36          0          0          0          0          0          0          0
  components       :          0          0          0          0          0          0          0          0          0          0          0          0          0          0          0
Constraint Timings :  TotalTime  SetupTime   Separate  Propagate     EnfoLP     EnfoPS     EnfoRelax   Check    ResProp    SB-Prop
  benderslp        :       0.16       0.00       0.00       0.00       0.16       0.00       0.00       0.00       0.00       0.00
  integral         :      67.93       0.00       0.00       0.00      67.89       0.00       0.00       0.04       0.00       0.00
  varbound         :       0.91       0.00       0.00       0.91       0.00       0.00       0.00       0.00       0.00       0.00
  and              :     125.34       0.00      90.76      33.58       0.00       0.00       0.00       0.11       0.41       0.48
  linear           :       5.15       0.00       0.07       4.99       0.00       0.00       0.00       0.00       0.00       0.09
  logicor          :      15.08       0.00       0.00      15.04       0.00       0.00       0.00       0.00       0.02       0.02
  bounddisjunction :       0.73       0.00       0.00       0.73       0.00       0.00       0.00       0.00       0.00       0.00
  benders          :       0.00       0.00       0.00       0.00       0.00       0.00       0.00       0.00       0.00       0.00
  countsols        :       0.00       0.00       0.00       0.00       0.00       0.00       0.00       0.00       0.00       0.00
  components       :       0.22       0.00       0.00       0.22       0.00       0.00       0.00       0.00       0.00       0.00
Propagators        : #Propagate   #ResProp    Cutoffs    DomReds
  dualfix          :          4          0          0          0
  genvbounds       :          0          0          0          0
  nlobbt           :          0          0          0          0
  obbt             :          0          0          0          0
  probing          :          0          0          0          0
  pseudoobj        :     635259          1          0        805
  redcost          :     336590          0          0     177387
  rootredcost      :         12          0          0          0
  symmetry         :          0          0          0          0
  vbounds          :     129355          0          0          0
Propagator Timings :  TotalTime  SetupTime   Presolve  Propagate    ResProp    SB-Prop
  dualfix          :       0.00       0.00       0.00       0.00       0.00       0.00
  genvbounds       :       0.52       0.00       0.00       0.52       0.00       0.00
  nlobbt           :       0.00       0.00       0.00       0.00       0.00       0.00
  obbt             :       0.00       0.00       0.00       0.00       0.00       0.00
  probing          :       0.31       0.00       0.31       0.00       0.00       0.00
  pseudoobj        :       0.85       0.00       0.00       0.85       0.00       0.00
  redcost          :      17.33       0.00       0.00      17.33       0.00       0.00
  rootredcost      :       0.81       0.00       0.00       0.81       0.00       0.00
  symmetry         :       0.31       0.00       0.00       0.31       0.00       0.00
  vbounds          :       0.61       0.00       0.00       0.58       0.00       0.03
Conflict Analysis  :       Time      Calls    Success    DomReds  Conflicts   Literals    Reconvs ReconvLits   Dualrays   Nonzeros   LP Iters   (pool size: [10000,10000])
  propagation      :       0.00        722        479          -        584       70.0          0        0.0          -          -          -
  infeasible LP    :       0.10         38         38          -       1458      138.1          0        0.0        117      132.8          0
  bound exceed. LP :      28.83      10383       9642          -     204638      105.2          5       56.0          0        0.0      79505
  strong branching :       0.00          0          0          -          0        0.0          0        0.0          -          -          0
  pseudo solution  :       0.00          0          0          -          0        0.0          0        0.0          -          -          -
  applied globally :       0.68          -          -          0      47776      113.9          -          -        117          -          -
  applied locally  :          -          -          -          0          0        0.0          -          -          0          -          -
Separators         :   ExecTime  SetupTime      Calls  RootCalls    Cutoffs    DomReds  FoundCuts ViaPoolAdd  DirectAdd    Applied ViaPoolApp  DirectApp      Conss
  cut pool         :       6.82          -      34258        183          -          -      33793    2296739          -          -          -          -          -    (maximal pool size:       3965)
  aggregation      :     272.54       0.00       4848        157          0          0          4          0          0          0          0          0          0
  > cmir           :          -          -          -          -          -          -          -          0          0          0          0          0          -
  > flowcover      :          -          -          -          -          -          -          -          0          0          0          0          0          -
  > knapsackcover  :          -          -          -          -          -          -          -          0          0          0          0          0          -
  cgmip            :       0.00       0.00          0          0          0          0          0          0          0          0          0          0          0
  clique           :       0.00       0.00        157        157          0          0          0          0          0          0          0          0          0
  closecuts        :       0.00       0.00          0          0          0          0          0          0          0          0          0          0          0
  convexproj       :       0.00       0.00          0          0          0          0          0          0          0          0          0          0          0
  disjunctive      :       0.00       0.00          0          0          0          0          0          0          0          0          0          0          0
  eccuts           :       0.00       0.00          0          0          0          0          0          0          0          0          0          0          0
  gauge            :       0.00       0.00          0          0          0          0          0          0          0          0          0          0          0
  gomory           :       0.00       0.00          0          0          0          0          0          0          0          0          0          0          0
  > gomorymi       :          -          -          -          -          -          -          -          0          0          0          0          0          -
  > strongcg       :          -          -          -          -          -          -          -          0          0          0          0          0          -
  impliedbounds    :       0.23       0.00       4848        157          0          0          1          0          0          0          0          0          0
  interlattice     :       0.66       0.00         80         80          0          0         80          0         80         79          0         79          0
  interminor       :       0.00       0.00          0          0          0          0          0          0          0          0          0          0          0
  intersub         :       1.65       0.00         40         40          0          0         40          0         40         40          0         40          0
  intobj           :       0.00       0.00          0          0          0          0          0          0          0          0          0          0          0
  mcf              :       0.01       0.00          1          1          0          0          0          0          0          0          0          0          0
  minor            :       0.00       0.00          0          0          0          0          0          0          0          0          0          0          0
  mixing           :       0.03       0.00       4848        157          0          0          0          0          0          0          0          0          0
  oddcycle         :       0.00       0.00          0          0          0          0          0          0          0          0          0          0          0
  rapidlearning    :       0.00       0.00          0          0          0          0          0          0          0          0          0          0          0
  rlt              :       0.00       0.00         10         10          0          0          0          0          0          0          0          0          0
  zerohalf         :      28.66       0.00       4176         20          0          0      33788    2296739          0     263809     263809          0          0
Cutselectors       :   ExecTime  SetupTime      Calls  RootCalls   Selected     Forced   Filtered  RootSelec   RootForc   RootFilt 
  hybrid           :       2.19       0.00      19531        156     264573          0    2032959        325          0         41
Pricers            :   ExecTime  SetupTime      Calls       Vars
  problem variables:       0.00          -          0          0
Branching Rules    :   ExecTime  SetupTime   BranchLP  BranchExt   BranchPS    Cutoffs    DomReds       Cuts      Conss   Children
  allfullstrong    :       0.00       0.00          0          0          0          0          0          0          0          0
  cloud            :       0.00       0.00          0          0          0          0          0          0          0          0
  distribution     :       0.00       0.00          0          0          0          0          0          0          0          0
  fullstrong       :       0.00       0.00          0          0          0          0          0          0          0          0
  inference        :       0.00       0.00          0          0          0          0          0          0          0          0
  leastinf         :       0.00       0.00          0          0          0          0          0          0          0          0
  lookahead        :       0.00       0.00          0          0          0          0          0          0          0          0
  mostinf          :       0.00       0.00          0          0          0          0          0          0          0          0
  multaggr         :       0.00       0.00          0          0          0          0          0          0          0          0
  nodereopt        :       0.00       0.00          0          0          0          0          0          0          0          0
  pscost           :       0.00       0.00          0          0          0          0          0          0          0          0
  random           :       0.00       0.00          0          0          0          0          0          0          0          0
  relpscost        :      67.51       0.00     145076          0          0          0       4570          0       1813     288282
  vanillafullstrong:       0.00       0.00          0          0          0          0          0          0          0          0
Primal Heuristics  :   ExecTime  SetupTime      Calls      Found       Best
  LP solutions     :       0.02          -          -          3          3
  relax solutions  :       0.00          -          -          0          0
  pseudo solutions :       0.00          -          -          0          0
  strong branching :       0.01          -          -          0          0
  actconsdiving    :       0.00       0.00          0          0          0
  adaptivediving   :       3.64       0.00         37          0          0
  alns             :       3.73       0.00         28          6          5
  bound            :       0.00       0.00          0          0          0
  clique           :       0.01       0.00          1          0          0
  coefdiving       :       0.00       0.00          0          0          0
  completesol      :       0.00       0.00          0          0          0
  conflictdiving   :     168.65       0.00       1601          0          0
  crossover        :       2.19       0.00         12          1          1
  dins             :       0.00       0.00          0          0          0
  distributiondivin:      77.39       0.00        462          0          0
  dps              :       0.00       0.00          0          0          0
  dualval          :       0.00       0.00          0          0          0
  farkasdiving     :       0.02       0.00          0          0          0
  feaspump         :       0.36       0.00          1          1          1
  fixandinfer      :       0.00       0.00          0          0          0
  fracdiving       :      56.46       0.00        642          0          0
  gins             :       0.11       0.00          0          0          0
  guideddiving     :      57.55       0.00        618          1          1
  indicator        :       0.13       0.00          0          0          0
  indicatordiving  :       0.00       0.00          0          0          0
  intdiving        :       0.00       0.00          0          0          0
  intshifting      :       0.62       0.00        102          0          0
  linesearchdiving :      58.51       0.00        577          0          0
  localbranching   :       0.00       0.00          0          0          0
  locks            :       0.01       0.00          1          0          0
  lpface           :       0.08       0.00          0          0          0
  mpec             :      84.73       0.00         11          1          1
  multistart       :       0.00       0.00          0          0          0
  mutation         :       0.00       0.00          0          0          0
  nlpdiving        :      23.13       0.00          5          3          0
  objpscostdiving  :      53.24       0.00         75         14          0
  octane           :       0.00       0.00          0          0          0
  ofins            :       0.18       0.00          0          0          0
  oneopt           :       0.16       0.00         16          0          0
  padm             :       0.00       0.00          0          0          0
  proximity        :       0.00       0.00          0          0          0
  pscostdiving     :      56.61       0.00        504          1          1
  randrounding     :       1.48       0.00      14745          0          0
  rens             :       0.00       0.00          0          0          0
  reoptsols        :       0.00       0.00          0          0          0
  repair           :       0.00       0.00          0          0          0
  rins             :       3.76       0.00         27          0          0
  rootsoldiving    :      32.00       0.00         38          0          0
  rounding         :       1.48       0.00       5595          0          0
  shiftandpropagate:       0.00       0.00          0          0          0
  shifting         :      37.74       0.00      10361          2          2
  simplerounding   :       0.10       0.00          0          0          0
  subnlp           :     198.23       0.00          0          0          0
  trivial          :       0.01       0.00          2          2          2
  trivialnegation  :       0.00       0.00          0          0          0
  trustregion      :       0.00       0.00          0          0          0
  trysol           :       0.20       0.00          0          0          0
  twoopt           :       0.00       0.00          0          0          0
  undercover       :       1.59       0.00          1          1          1
  vbounds          :       0.00       0.00          0          0          0
  veclendiving     :      58.54       0.00        609          0          0
  zeroobj          :       0.00       0.00          0          0          0
  zirounding       :       0.50       0.00       1000          0          0
  other solutions  :          -          -          -          0          -
Diving (single)    :      Calls      Nodes   LP Iters Backtracks  Conflicts   MinDepth   MaxDepth   AvgDepth  RoundSols  NLeafSols  MinSolDpt  MaxSolDpt  AvgSolDpt
  actconsdiving    :          0          -          -          -          -          -          -          -          -          -          -          -          -
  coefdiving       :          0          -          -          -          -          -          -          -          -          -          -          -          -
  conflictdiving   :       1601      63924    1950117       1821      96661         53         86       63.4          0          -          -          -          -
  distributiondivin:        462      16356     661822        504       7700         51         75       58.0          0          -          -          -          -
  farkasdiving     :          0          -          -          -          -          -          -          -          -          -          -          -          -
  fracdiving       :        642      53230     656983        303       4640         56        277      107.0          0          -          -          -          -
  guideddiving     :        618      52744     668045        198       5585         55        237      108.8          0          1        119        119      119.0
  indicatordiving  :          0          -          -          -          -          -          -          -          -          -          -          -          -
  linesearchdiving :        577      21461     657768        574      33414         46         90       59.7          0          -          -          -          -
  pscostdiving     :        504      23549     672930        528      13662         57         80       69.2          0          1         80         80       80.0
  veclendiving     :        609      23881     658118        581      38212         53         92       62.4          0          -          -          -          -
Diving (adaptive)  :      Calls      Nodes   LP Iters Backtracks  Conflicts   MinDepth   MaxDepth   AvgDepth  RoundSols  NLeafSols  MinSolDpt  MaxSolDpt  AvgSolDpt
  actconsdiving    :          2         84       2944          2         15         56         60       58.0          0          -          -          -          -
  coefdiving       :         16        640      15504         10        874         55         79       64.8          0          -          -          -          -
  conflictdiving   :          0          -          -          -          -          -          -          -          -          -          -          -          -
  distributiondivin:          0          -          -          -          -          -          -          -          -          -          -          -          -
  farkasdiving     :          0          -          -          -          -          -          -          -          -          -          -          -          -
  fracdiving       :          0          -          -          -          -          -          -          -          -          -          -          -          -
  guideddiving     :          1        168       1330          0          0        185        185      185.0          0          -          -          -          -
  indicatordiving  :          0          -          -          -          -          -          -          -          -          -          -          -          -
  linesearchdiving :         10        316       9661          7        504         53         72       58.9          0          -          -          -          -
  pscostdiving     :          3        111       2731          3         46         62         71       67.7          0          -          -          -          -
  veclendiving     :          5        162       4168          5        259         54         75       64.2          0          -          -          -          -
Neighborhoods      :      Calls  SetupTime  SolveTime SolveNodes       Sols       Best       Exp3  EpsGreedy        UCB TgtFixRate  Opt  Inf Node Stal  Sol  Usr Othr Actv
  rens             :          2       0.10       0.11         72          0          0    0.00000   -1.00000    0.47533      0.850    0    1    0    1    0    0    0    1
  rins             :          1       0.02       0.04         49          0          0    0.00000   -1.00000    0.49990      0.700    0    1    0    0    0    0    0    1
  mutation         :          3       0.10       0.62        858          2          2    0.00000   -1.00000    0.48744      0.662    1    1    0    1    0    0    0    1
  localbranching   :          3       0.30       0.31        486          1          1    0.00000   -1.00000    0.46754      0.812    0    1    0    2    0    0    0    1
  crossover        :          3       0.31       0.27        127          0          0    0.00000   -1.00000    0.43466      0.662    0    2    0    1    0    0    0    1
  proximity        :          7       0.38       0.33        378          2          1    0.00000   -1.00000    0.52014      0.864    1    2    0    4    0    0    0    1
  zeroobjective    :          7       0.34       0.13        405          1          1    0.00000   -1.00000    0.51346      0.867    1    2    0    4    0    0    0    1
  dins             :          2       0.08       0.06         77          0          0    0.00000   -1.00000    0.47540      0.850    0    1    0    1    0    0    0    1
  trustregion      :          0       0.00       0.00          0          0          0    0.00000   -1.00000    1.00000      0.900    0    0    0    0    0    0    0    0
Expressions        :   #IntEval  IntEvalTi   #RevProp  RevPropTi    DomReds    Cutoffs  #Estimate  EstimTime  Branching  #Simplify SimplifyTi Simplified
  pow              :          0       0.00          0       0.00          0          0          0       0.00          0          0       0.00          0
  prod             :       9900       0.00          0       0.00          0          0          0       0.00          0       6734       0.00          0
  sum              :          8       0.00          2       0.00          0          0          0       0.00          0          3       0.00          2
  var              :       6503       0.00          0       0.00          0          0          0       0.00          0      15568       0.00          0
  varidx           :          0       0.00          0       0.00          0          0          0       0.00          0          0       0.00          0
LP                 :       Time      Calls Iterations  Iter/call   Iter/sec  Time-0-It Calls-0-It    ItLimit
  primal LP        :     127.27      19080          0       0.00       0.00     127.14      19080
  dual LP          :    1727.35     270747   12913131      52.95    7475.69      10.44      26850
  lex dual LP      :       0.00          0          0       0.00          -
  barrier LP       :       0.00          0          0       0.00          -       0.00          0
  resolve instable :       0.00          0          0       0.00          -
  diving/probing LP:     524.42      23689    6545686     276.32   12481.76
  strong branching :      25.17       2886     219395      76.02    8716.53          -          -        494
    (at root node) :          -         19       7708     405.68          -
  conflict analysis:      10.93       8070      79505       9.85    7274.02
NLP relaxation     :
  solve time       :      20.77 (18 calls)
  convexity        :  nonconvex (40 linear rows, 0 convex ineq., 0 nonconvex ineq., 1784 nonlinear eq. or two-sided ineq.)
NLP Solvers        :  #Problems  ProblemTi    #Solves  SolveTime      #Iter  Time/Iter      #Okay #TimeLimit #IterLimit #LObjLimit #Interrupt  #NumError #EvalError  #OutOfMem #LicenseEr #OtherTerm   #GlobOpt    #LocOpt  #Feasible #LocInfeas #GlobInfea #Unbounded   #Unknown
  ipopt            :         12       8.01         51     107.86       1832       0.06         48          0          3          0          0          0          0          0          0          0          0         38          1          9          0          0          3
B&B Tree           :
  number of runs   :          1
  nodes            :     223519 (144141 internal, 79378 leaves)
  feasible leaves  :          3
  infeas. leaves   :         89
  objective leaves :      79285
  nodes (total)    :     223519 (144141 internal, 79378 leaves)
  nodes left       :      64237
  max depth        :         70
  max depth (total):         70
  backtracks       :      44134 (19.7%)
  early backtracks :          0 (0.0%)
  nodes exc. ref.  :          0 (0.0%)
  delayed cutoffs  :          8
  repropagations   :       2176 (675 domain reductions, 0 cutoffs)
  avg switch length:       5.78
  switching time   :     173.41
Estim. Tree Size   :     448092
Estimation Tree    : 288283 nodes (224046 visited, 144141 internal, 79905 leaves, 64237 open), weight: 0.0000 completed 0.1246
Estimations        :      estim      value      trend resolution     smooth
  wbe              : 4582648412731288          -          -          -          -
  tree-profile     :         -1          -          -          -          -
  gap              :    4152976    0.67426    0.00002        128    4298806
  tree-weight      :     448092    0.00000    0.00000        128     447218
  leaf-frequency   :     448092    0.35664   -0.00010        128     451843
  ssg              :    3741152    0.80322   -0.00006        128    4078954
  open-nodes       :     448092 64237.00000  162.32118        128     447218
Root Node          :
  First LP value   : -1.00000000000000e+00
  First LP Iters   :       1667 (11113.33 Iter/sec)
  First LP Time    :       0.15
  Final Dual Bound : -9.37657897505029e-01
  Final Root Iters :       6708
  Root LP Estimate : -3.40496585096431e-01
Solution           :
  Solutions found  :         36 (18 improvements)
  First Solution   : +1.00000000000000e+05   (in run 1, after 0 nodes, 0.00 seconds, depth 0, found by <trivial>)
  Gap First Sol.   :   infinite
  Gap Last Sol.    :      49.49 %
  Primal Bound     : -5.60404040404038e-01   (in run 1, after 144608 nodes, 2060.88 seconds, depth 20, found by <alns>)
  Dual Bound       : -8.31140473077580e-01
  Gap              :      48.31 %
Integrals          :      Total       Avg%
  primal-dual      :  125014.44      34.73
  primal-ref       :          -          - (not evaluated)
  dual-ref         :          -          - (not evaluated)
